p wcnf 186 279 280 
1 64 159 0 
1 -26 -19 0 
1 -164 24 0 
1 89 126 0 
1 21 122 0 
1 -183 29 0 
1 12 147 0 
1 -49 -20 0 
1 -169 102 0 
1 -29 -170 0 
1 -16 179 0 
1 -81 -84 0 
1 -34 93 0 
1 52 -37 0 
1 103 -170 0 
1 108 -46 0 
1 -112 108 0 
1 -163 35 0 
1 -154 95 0 
1 -184 59 0 
1 -63 143 0 
1 -119 -40 0 
1 108 -185 0 
1 129 -104 0 
1 -33 67 0 
1 -142 -89 0 
1 112 19 0 
1 101 184 0 
1 -134 -21 0 
1 46 -86 0 
1 74 -23 0 
1 75 -154 0 
1 49 -170 0 
1 -108 88 0 
1 113 18 0 
1 77 85 0 
1 -53 -9 0 
1 78 103 0 
1 -164 178 0 
1 168 71 0 
1 62 7 0 
1 69 146 0 
1 -125 -79 0 
1 -186 -182 0 
1 19 69 0 
1 -104 182 0 
1 -132 157 0 
1 41 -60 0 
1 -175 111 0 
1 123 13 0 
1 -26 -75 0 
1 18 -107 0 
1 131 9 0 
1 130 -43 0 
1 123 -90 0 
1 -35 27 0 
1 58 -125 0 
1 -34 -82 0 
1 182 -37 0 
1 3 98 0 
1 91 -86 0 
1 54 156 0 
1 -113 1 0 
1 4 -10 0 
1 -112 57 0 
1 150 2 0 
1 34 173 0 
1 54 185 0 
1 -143 -7 0 
1 168 15 0 
1 -183 -169 0 
1 -133 49 0 
1 -176 -21 0 
1 22 -24 0 
1 5 20 0 
1 -66 68 0 
1 -157 16 0 
1 -62 20 0 
1 -133 123 0 
1 68 -77 0 
1 -44 -30 0 
1 -85 161 0 
1 54 3 0 
1 116 -95 0 
1 -135 41 0 
1 24 180 0 
1 20 150 0 
1 -122 -61 0 
1 -75 -182 0 
1 122 -72 0 
1 173 14 0 
1 98 29 0 
1 27 29 0 
1 -47 -152 0 
1 149 -82 0 
1 -83 -111 0 
1 -155 -92 0 
1 35 80 0 
1 -50 129 0 
1 -93 -65 0 
1 32 175 0 
1 139 21 0 
1 118 -103 0 
1 -110 163 0 
1 -173 -20 0 
1 -52 -10 0 
1 141 -48 0 
1 78 -109 0 
1 -74 90 0 
1 -70 -15 0 
1 20 -153 0 
1 -24 -97 0 
1 -3 63 0 
1 27 32 0 
1 45 -84 0 
1 -15 -93 0 
1 66 105 0 
1 137 -26 0 
1 186 -120 0 
1 92 -33 0 
1 28 -112 0 
1 -56 105 0 
1 -180 45 0 
1 -72 -178 0 
1 76 -57 0 
1 37 163 0 
1 68 8 0 
1 -64 132 0 
1 -67 112 0 
1 177 29 0 
1 -169 141 0 
1 157 25 0 
1 -80 162 0 
1 -150 -23 0 
1 -65 36 0 
1 -45 118 0 
1 159 173 0 
1 -30 75 0 
1 -144 164 0 
1 7 -85 0 
1 -3 -62 0 
1 -57 163 0 
1 -125 -130 0 
1 -94 -31 0 
1 51 37 0 
1 122 -79 0 
1 -19 -154 0 
1 146 -8 0 
1 -104 -15 0 
1 -9 25 0 
1 -69 -25 0 
1 -112 15 0 
1 26 -117 0 
1 -174 68 0 
1 76 158 0 
1 -71 53 0 
1 -23 -14 0 
1 -150 56 0 
1 66 33 0 
1 110 126 0 
1 128 140 0 
1 127 -110 0 
1 -170 -185 0 
1 164 -95 0 
1 -66 186 0 
1 -119 36 0 
1 124 151 0 
1 174 -20 0 
1 22 181 0 
1 110 -41 0 
1 -9 62 0 
1 -145 -175 0 
1 -45 143 0 
1 -123 10 0 
1 -155 -103 0 
1 56 -7 0 
1 -141 -56 0 
1 98 -177 0 
1 -38 -130 0 
1 -12 54 0 
1 -173 129 0 
1 -114 -166 0 
1 -136 138 0 
1 142 169 0 
1 154 144 0 
1 82 -126 0 
1 -59 142 0 
1 154 -75 0 
1 24 -149 0 
1 39 -115 0 
1 141 137 0 
1 -36 104 0 
1 6 158 0 
1 -135 42 0 
1 -2 41 0 
1 45 16 0 
1 -79 -24 0 
1 -15 17 0 
1 17 170 0 
1 37 65 0 
1 141 -105 0 
1 153 78 0 
1 -174 169 0 
1 95 -164 0 
1 -94 43 0 
1 16 37 0 
1 -11 -97 0 
1 101 -7 0 
1 -170 -107 0 
1 -158 -48 0 
1 -117 139 0 
1 163 54 0 
1 -65 -46 0 
1 -49 90 0 
1 -29 144 0 
1 99 158 0 
1 66 -150 0 
1 -45 87 0 
1 150 138 0 
1 -28 114 0 
1 178 -70 0 
1 153 89 0 
1 -174 153 0 
1 -118 -10 0 
1 179 -63 0 
1 93 1 0 
1 56 148 0 
1 168 -80 0 
1 -16 33 0 
1 41 -159 0 
1 -78 142 0 
1 -89 -54 0 
1 117 -177 0 
1 -152 -87 0 
1 180 70 0 
1 -109 -27 0 
1 154 -91 0 
1 159 183 0 
1 35 19 0 
1 -33 -67 0 
1 -186 -105 0 
1 -171 43 0 
1 -183 47 0 
1 54 6 0 
1 84 -105 0 
1 -62 96 0 
1 -145 129 0 
1 53 23 0 
1 93 -132 0 
1 -166 -71 0 
1 131 -150 0 
1 102 -28 0 
1 -136 3 0 
1 -66 -156 0 
1 165 43 0 
1 137 85 0 
1 114 -181 0 
1 10 155 0 
1 -47 138 0 
1 114 -170 0 
1 79 111 0 
1 -151 -102 0 
1 91 169 0 
1 -71 176 0 
1 105 -30 0 
1 -79 121 0 
1 14 133 0 
1 -62 88 0 
1 -87 -7 0 
1 -10 -59 0 
1 50 117 0 
1 127 -33 0 
1 -142 -183 0 
1 25 -167 0 
1 -66 -57 0 
1 25 157 0 
1 177 146 0 
1 30 -165 0 
1 166 -143 0 
